Minimize
 +  5 x1 +  10 x2 +  10 x3 +  16 x4 +  x5 +  18 x6 +  11 x7 +  7 x8 +  6 x9 +  5 x10 +  11 x11 +  11 x12 +  13 x13 +  12 x14 +  4 x15 +  11 x16 +  7 x17 +  4 x18 +  12 x19 +  8 x20 +  7 x21 +  8 x22 +  11 x23 +  18 x24 +  6 x25 +  x26 +  19 x27 +  4 x28 +  10 x29 +  5 x30 +  18 x31 +  10 x32 +  14 x33 +  x34 +  18 x35 +  x36 +  7 x37 +  16 x38 +  5 x39 +  16 x40 +  x41 +  13 x42 +  4 x43 +  12 x44 +  17 x45 +  7 x46 +  4 x47 +  16 x48 +  13 x49 +  3 x50 +  10 x51 +  18 x52 +  11 x53 +  10 x54 +  13 x55 +  10 x56 +  11 x57 +  6 x58 +  17 x59 +  19 x60 +  15 x61 +  17 x62 +  9 x63 +  3 x64 +  19 x65 +  4 x66 +  14 x67 +  12 x68 +  7 x69 +  5 x70 +  8 x71 +  10 x72 +  10 x73 +  4 x74 +  12 x75 +  3 x76 +  7 x77 +  4 x78 +  3 x79 +  4 x80 +  2 x81 +  9 x82 +  4 x83 +  16 x84 +  2 x85 +  19 x86 +  x87 +  10 x88 +  12 x89 +  11 x90 +  7 x91 +  5 x92 +  9 x93 +  15 x94 +  18 x95 +  6 x96 +  12 x97 +  8 x98 +  6 x99 +  11 x100 +  x101 +  17 x102 +  4 x103 +  6 x104 +  7 x105 +  18 x106 +  2 x107 +  11 x108 +  19 x109 +  7 x110 +  8 x111 +  15 x112 +  3 x113 +  11 x114 +  4 x115 +  8 x116 +  16 x117 +  19 x118 +  7 x119 +  6 x120 +  12 x121 +  8 x122 +  3 x123 +  6 x124 +  3 x125 +  5 x126 +  11 x127 +  8 x128 +  2 x129 +  11 x130 +  11 x131 +  11 x132 +  16 x133 +  19 x134 +  3 x135 +  9 x136 +  15 x137 +  14 x138 +  14 x139 +  8 x140 +  16 x141 +  13 x142 +  9 x143 +  11 x144 +  16 x145 +  8 x146 +  18 x147 +  14 x148 +  17 x149 +  12 x150 +  15 x151 +  6 x152 +  18 x153 +  7 x154 +  14 x155 +  10 x156 +  16 x157 +  8 x158 +  11 x159 +  18 x160 +  17 x161 +  2 x162 +  x163 +  10 x164 +  12 x165 +  18 x166 +  19 x167 +  3 x168 +  x169 +  11 x170 +  19 x171 +  6 x172 +  11 x173 +  3 x174 +  5 x175 +  7 x176 +  3 x177 +  6 x178 +  2 x179 +  12 x180 +  19 x181 +  11 x182 +  18 x183 +  16 x184 +  15 x185 +  10 x186 +  9 x187 +  8 x188 +  17 x189 +  16 x190 +  8 x191 +  13 x192 +  13 x193 +  19 x194 +  3 x195 +  16 x196 +  10 x197 +  7 x198 +  7 x199 +  10 x200 +  16 x201 +  16 x202 +  18 x203 +  8 x204 +  18 x205 +  14 x206 +  6 x207 +  18 x208 +  9 x209 +  15 x210 +  4 x211 +  17 x212 +  12 x213 +  14 x214 +  18 x215 +  16 x216 +  14 x217 +  3 x218 +  12 x219 +  13 x220 +  19 x221 +  13 x222 +  14 x223 +  11 x224 +  19 x225 +  16 x226 +  12 x227 +  5 x228 +  14 x229 +  16 x230 +  6 x231 +  4 x232 +  4 x233 +  15 x234 +  5 x235 +  18 x236 +  5 x237 +  13 x238 +  19 x239 +  17 x240 +  15 x241 +  6 x242 +  12 x243 +  10 x244 +  18 x245 +  12 x246 +  15 x247 +  19 x248 +  14 x249 +  x250 +  16 x251 +  18 x252 +  8 x253 +  10 x254 +  10 x255 +  7 x256 +  5 x257 +  11 x258 +  4 x259 +  12 x260 +  14 x261 +  12 x262 +  9 x263 +  8 x264 +  3 x265 +  4 x266 +  17 x267 +  13 x268 +  18 x269 +  13 x270 +  11 x271 +  9 x272 +  7 x273 +  17 x274 +  13 x275 +  10 x276 +  8 x277 +  18 x278 +  10 x279 +  17 x280 +  12 x281 +  16 x282 +  8 x283 +  13 x284 +  2 x285 +  18 x286 +  19 x287 +  7 x288 +  3 x289 +  9 x290 +  18 x291 +  12 x292 +  14 x293 +  18 x294 +  18 x295 +  17 x296 +  16 x297 +  14 x298 +  10 x299 +  10 x300 +  5 x301 +  18 x302 +  x303 +  5 x304 +  10 x305 +  16 x306 +  15 x307 +  6 x308 +  7 x309 +  6 x310 +  10 x311 +  15 x312 +  17 x313 +  3 x314 +  13 x315 +  x316 +  12 x317 +  11 x318 +  17 x319 +  2 x320 +  9 x321 +  6 x322 +  4 x323 +  16 x324 +  x325 +  14 x326 +  7 x327 +  15 x328 +  9 x329 +  3 x330 +  9 x331 +  10 x332 +  10 x333 +  19 x334 +  14 x335 +  16 x336 +  8 x337 +  5 x338 +  5 x339 +  17 x340 +  12 x341 +  10 x342 +  14 x343 +  12 x344 +  11 x345 +  10 x346 +  19 x347 +  11 x348 +  11 x349 +  2 x350 +  16 x351 +  17 x352 +  18 x353 +  2 x354 +  3 x355 +  14 x356 +  4 x357 +  17 x358 +  10 x359 +  17 x360 +  6 x361 +  19 x362 +  15 x363 +  12 x364 +  18 x365 +  7 x366 +  x367 +  6 x368 +  2 x369 +  5 x370 +  8 x371 +  12 x372 +  7 x373 +  15 x374 +  19 x375 +  2 x376 +  8 x377 +  16 x378 +  3 x379 +  7 x380 +  11 x381 +  9 x382 +  9 x383 +  3 x384 +  8 x385 +  16 x386 +  13 x387 +  13 x388 +  13 x389 +  8 x390 +  14 x391 +  16 x392 +  12 x393 +  3 x394 +  15 x395 +  19 x396 +  6 x397 +  11 x398 +  4 x399 +  12 x400
Subject To
 +  x1 +  x21 +  x41 +  x61 +  x81 +  x101 +  x121 +  x141 +  x161 +  x181 +  x201 +  x221 +  x241 +  x261 +  x281 +  x301 +  x321 +  x341 +  x361 +  x381 = 1
 +  x2 +  x22 +  x42 +  x62 +  x82 +  x102 +  x122 +  x142 +  x162 +  x182 +  x202 +  x222 +  x242 +  x262 +  x282 +  x302 +  x322 +  x342 +  x362 +  x382 = 1
 +  x3 +  x23 +  x43 +  x63 +  x83 +  x103 +  x123 +  x143 +  x163 +  x183 +  x203 +  x223 +  x243 +  x263 +  x283 +  x303 +  x323 +  x343 +  x363 +  x383 = 1
 +  x4 +  x24 +  x44 +  x64 +  x84 +  x104 +  x124 +  x144 +  x164 +  x184 +  x204 +  x224 +  x244 +  x264 +  x284 +  x304 +  x324 +  x344 +  x364 +  x384 = 1
 +  x5 +  x25 +  x45 +  x65 +  x85 +  x105 +  x125 +  x145 +  x165 +  x185 +  x205 +  x225 +  x245 +  x265 +  x285 +  x305 +  x325 +  x345 +  x365 +  x385 = 1
 +  x6 +  x26 +  x46 +  x66 +  x86 +  x106 +  x126 +  x146 +  x166 +  x186 +  x206 +  x226 +  x246 +  x266 +  x286 +  x306 +  x326 +  x346 +  x366 +  x386 = 1
 +  x7 +  x27 +  x47 +  x67 +  x87 +  x107 +  x127 +  x147 +  x167 +  x187 +  x207 +  x227 +  x247 +  x267 +  x287 +  x307 +  x327 +  x347 +  x367 +  x387 = 1
 +  x8 +  x28 +  x48 +  x68 +  x88 +  x108 +  x128 +  x148 +  x168 +  x188 +  x208 +  x228 +  x248 +  x268 +  x288 +  x308 +  x328 +  x348 +  x368 +  x388 = 1
 +  x9 +  x29 +  x49 +  x69 +  x89 +  x109 +  x129 +  x149 +  x169 +  x189 +  x209 +  x229 +  x249 +  x269 +  x289 +  x309 +  x329 +  x349 +  x369 +  x389 = 1
 +  x10 +  x30 +  x50 +  x70 +  x90 +  x110 +  x130 +  x150 +  x170 +  x190 +  x210 +  x230 +  x250 +  x270 +  x290 +  x310 +  x330 +  x350 +  x370 +  x390 = 1
 +  x11 +  x31 +  x51 +  x71 +  x91 +  x111 +  x131 +  x151 +  x171 +  x191 +  x211 +  x231 +  x251 +  x271 +  x291 +  x311 +  x331 +  x351 +  x371 +  x391 = 1
 +  x12 +  x32 +  x52 +  x72 +  x92 +  x112 +  x132 +  x152 +  x172 +  x192 +  x212 +  x232 +  x252 +  x272 +  x292 +  x312 +  x332 +  x352 +  x372 +  x392 = 1
 +  x13 +  x33 +  x53 +  x73 +  x93 +  x113 +  x133 +  x153 +  x173 +  x193 +  x213 +  x233 +  x253 +  x273 +  x293 +  x313 +  x333 +  x353 +  x373 +  x393 = 1
 +  x14 +  x34 +  x54 +  x74 +  x94 +  x114 +  x134 +  x154 +  x174 +  x194 +  x214 +  x234 +  x254 +  x274 +  x294 +  x314 +  x334 +  x354 +  x374 +  x394 = 1
 +  x15 +  x35 +  x55 +  x75 +  x95 +  x115 +  x135 +  x155 +  x175 +  x195 +  x215 +  x235 +  x255 +  x275 +  x295 +  x315 +  x335 +  x355 +  x375 +  x395 = 1
 +  x16 +  x36 +  x56 +  x76 +  x96 +  x116 +  x136 +  x156 +  x176 +  x196 +  x216 +  x236 +  x256 +  x276 +  x296 +  x316 +  x336 +  x356 +  x376 +  x396 = 1
 +  x17 +  x37 +  x57 +  x77 +  x97 +  x117 +  x137 +  x157 +  x177 +  x197 +  x217 +  x237 +  x257 +  x277 +  x297 +  x317 +  x337 +  x357 +  x377 +  x397 = 1
 +  x18 +  x38 +  x58 +  x78 +  x98 +  x118 +  x138 +  x158 +  x178 +  x198 +  x218 +  x238 +  x258 +  x278 +  x298 +  x318 +  x338 +  x358 +  x378 +  x398 = 1
 +  x19 +  x39 +  x59 +  x79 +  x99 +  x119 +  x139 +  x159 +  x179 +  x199 +  x219 +  x239 +  x259 +  x279 +  x299 +  x319 +  x339 +  x359 +  x379 +  x399 = 1
 +  x20 +  x40 +  x60 +  x80 +  x100 +  x120 +  x140 +  x160 +  x180 +  x200 +  x220 +  x240 +  x260 +  x280 +  x300 +  x320 +  x340 +  x360 +  x380 +  x400 = 1
 +  x1 +  x2 +  x3 +  x4 +  x5 +  x6 +  x7 +  x8 +  x9 +  x10 +  x11 +  x12 +  x13 +  x14 +  x15 +  x16 +  x17 +  x18 +  x19 +  x20 = 1
 +  x21 +  x22 +  x23 +  x24 +  x25 +  x26 +  x27 +  x28 +  x29 +  x30 +  x31 +  x32 +  x33 +  x34 +  x35 +  x36 +  x37 +  x38 +  x39 +  x40 = 1
 +  x41 +  x42 +  x43 +  x44 +  x45 +  x46 +  x47 +  x48 +  x49 +  x50 +  x51 +  x52 +  x53 +  x54 +  x55 +  x56 +  x57 +  x58 +  x59 +  x60 = 1
 +  x61 +  x62 +  x63 +  x64 +  x65 +  x66 +  x67 +  x68 +  x69 +  x70 +  x71 +  x72 +  x73 +  x74 +  x75 +  x76 +  x77 +  x78 +  x79 +  x80 = 1
 +  x81 +  x82 +  x83 +  x84 +  x85 +  x86 +  x87 +  x88 +  x89 +  x90 +  x91 +  x92 +  x93 +  x94 +  x95 +  x96 +  x97 +  x98 +  x99 +  x100 = 1
 +  x101 +  x102 +  x103 +  x104 +  x105 +  x106 +  x107 +  x108 +  x109 +  x110 +  x111 +  x112 +  x113 +  x114 +  x115 +  x116 +  x117 +  x118 +  x119 +  x120 = 1
 +  x121 +  x122 +  x123 +  x124 +  x125 +  x126 +  x127 +  x128 +  x129 +  x130 +  x131 +  x132 +  x133 +  x134 +  x135 +  x136 +  x137 +  x138 +  x139 +  x140 = 1
 +  x141 +  x142 +  x143 +  x144 +  x145 +  x146 +  x147 +  x148 +  x149 +  x150 +  x151 +  x152 +  x153 +  x154 +  x155 +  x156 +  x157 +  x158 +  x159 +  x160 = 1
 +  x161 +  x162 +  x163 +  x164 +  x165 +  x166 +  x167 +  x168 +  x169 +  x170 +  x171 +  x172 +  x173 +  x174 +  x175 +  x176 +  x177 +  x178 +  x179 +  x180 = 1
 +  x181 +  x182 +  x183 +  x184 +  x185 +  x186 +  x187 +  x188 +  x189 +  x190 +  x191 +  x192 +  x193 +  x194 +  x195 +  x196 +  x197 +  x198 +  x199 +  x200 = 1
 +  x201 +  x202 +  x203 +  x204 +  x205 +  x206 +  x207 +  x208 +  x209 +  x210 +  x211 +  x212 +  x213 +  x214 +  x215 +  x216 +  x217 +  x218 +  x219 +  x220 = 1
 +  x221 +  x222 +  x223 +  x224 +  x225 +  x226 +  x227 +  x228 +  x229 +  x230 +  x231 +  x232 +  x233 +  x234 +  x235 +  x236 +  x237 +  x238 +  x239 +  x240 = 1
 +  x241 +  x242 +  x243 +  x244 +  x245 +  x246 +  x247 +  x248 +  x249 +  x250 +  x251 +  x252 +  x253 +  x254 +  x255 +  x256 +  x257 +  x258 +  x259 +  x260 = 1
 +  x261 +  x262 +  x263 +  x264 +  x265 +  x266 +  x267 +  x268 +  x269 +  x270 +  x271 +  x272 +  x273 +  x274 +  x275 +  x276 +  x277 +  x278 +  x279 +  x280 = 1
 +  x281 +  x282 +  x283 +  x284 +  x285 +  x286 +  x287 +  x288 +  x289 +  x290 +  x291 +  x292 +  x293 +  x294 +  x295 +  x296 +  x297 +  x298 +  x299 +  x300 = 1
 +  x301 +  x302 +  x303 +  x304 +  x305 +  x306 +  x307 +  x308 +  x309 +  x310 +  x311 +  x312 +  x313 +  x314 +  x315 +  x316 +  x317 +  x318 +  x319 +  x320 = 1
 +  x321 +  x322 +  x323 +  x324 +  x325 +  x326 +  x327 +  x328 +  x329 +  x330 +  x331 +  x332 +  x333 +  x334 +  x335 +  x336 +  x337 +  x338 +  x339 +  x340 = 1
 +  x341 +  x342 +  x343 +  x344 +  x345 +  x346 +  x347 +  x348 +  x349 +  x350 +  x351 +  x352 +  x353 +  x354 +  x355 +  x356 +  x357 +  x358 +  x359 +  x360 = 1
 +  x361 +  x362 +  x363 +  x364 +  x365 +  x366 +  x367 +  x368 +  x369 +  x370 +  x371 +  x372 +  x373 +  x374 +  x375 +  x376 +  x377 +  x378 +  x379 +  x380 = 1
 +  x381 +  x382 +  x383 +  x384 +  x385 +  x386 +  x387 +  x388 +  x389 +  x390 +  x391 +  x392 +  x393 +  x394 +  x395 +  x396 +  x397 +  x398 +  x399 +  x400 = 1
 -1 x2 -1 x21 >= -1
 -1 x3 -1 x22 -1 x41 >= -1
 -1 x4 -1 x23 -1 x42 -1 x61 >= -1
 -1 x5 -1 x24 -1 x43 -1 x62 -1 x81 >= -1
 -1 x6 -1 x25 -1 x44 -1 x63 -1 x82 -1 x101 >= -1
 -1 x7 -1 x26 -1 x45 -1 x64 -1 x83 -1 x102 -1 x121 >= -1
 -1 x8 -1 x27 -1 x46 -1 x65 -1 x84 -1 x103 -1 x122 -1 x141 >= -1
 -1 x9 -1 x28 -1 x47 -1 x66 -1 x85 -1 x104 -1 x123 -1 x142 -1 x161 >= -1
 -1 x10 -1 x29 -1 x48 -1 x67 -1 x86 -1 x105 -1 x124 -1 x143 -1 x162 -1 x181 >= -1
 -1 x11 -1 x30 -1 x49 -1 x68 -1 x87 -1 x106 -1 x125 -1 x144 -1 x163 -1 x182 -1 x201 >= -1
 -1 x12 -1 x31 -1 x50 -1 x69 -1 x88 -1 x107 -1 x126 -1 x145 -1 x164 -1 x183 -1 x202 -1 x221 >= -1
 -1 x13 -1 x32 -1 x51 -1 x70 -1 x89 -1 x108 -1 x127 -1 x146 -1 x165 -1 x184 -1 x203 -1 x222 -1 x241 >= -1
 -1 x14 -1 x33 -1 x52 -1 x71 -1 x90 -1 x109 -1 x128 -1 x147 -1 x166 -1 x185 -1 x204 -1 x223 -1 x242 -1 x261 >= -1
 -1 x15 -1 x34 -1 x53 -1 x72 -1 x91 -1 x110 -1 x129 -1 x148 -1 x167 -1 x186 -1 x205 -1 x224 -1 x243 -1 x262 -1 x281 >= -1
 -1 x16 -1 x35 -1 x54 -1 x73 -1 x92 -1 x111 -1 x130 -1 x149 -1 x168 -1 x187 -1 x206 -1 x225 -1 x244 -1 x263 -1 x282 -1 x301 >= -1
 -1 x17 -1 x36 -1 x55 -1 x74 -1 x93 -1 x112 -1 x131 -1 x150 -1 x169 -1 x188 -1 x207 -1 x226 -1 x245 -1 x264 -1 x283 -1 x302 -1 x321 >= -1
 -1 x18 -1 x37 -1 x56 -1 x75 -1 x94 -1 x113 -1 x132 -1 x151 -1 x170 -1 x189 -1 x208 -1 x227 -1 x246 -1 x265 -1 x284 -1 x303 -1 x322 -1 x341 >= -1
 -1 x19 -1 x38 -1 x57 -1 x76 -1 x95 -1 x114 -1 x133 -1 x152 -1 x171 -1 x190 -1 x209 -1 x228 -1 x247 -1 x266 -1 x285 -1 x304 -1 x323 -1 x342 -1 x361 >= -1
 -1 x20 -1 x39 -1 x58 -1 x77 -1 x96 -1 x115 -1 x134 -1 x153 -1 x172 -1 x191 -1 x210 -1 x229 -1 x248 -1 x267 -1 x286 -1 x305 -1 x324 -1 x343 -1 x362 -1 x381 >= -1
 -1 x40 -1 x59 -1 x78 -1 x97 -1 x116 -1 x135 -1 x154 -1 x173 -1 x192 -1 x211 -1 x230 -1 x249 -1 x268 -1 x287 -1 x306 -1 x325 -1 x344 -1 x363 -1 x382 >= -1
 -1 x60 -1 x79 -1 x98 -1 x117 -1 x136 -1 x155 -1 x174 -1 x193 -1 x212 -1 x231 -1 x250 -1 x269 -1 x288 -1 x307 -1 x326 -1 x345 -1 x364 -1 x383 >= -1
 -1 x80 -1 x99 -1 x118 -1 x137 -1 x156 -1 x175 -1 x194 -1 x213 -1 x232 -1 x251 -1 x270 -1 x289 -1 x308 -1 x327 -1 x346 -1 x365 -1 x384 >= -1
 -1 x100 -1 x119 -1 x138 -1 x157 -1 x176 -1 x195 -1 x214 -1 x233 -1 x252 -1 x271 -1 x290 -1 x309 -1 x328 -1 x347 -1 x366 -1 x385 >= -1
 -1 x120 -1 x139 -1 x158 -1 x177 -1 x196 -1 x215 -1 x234 -1 x253 -1 x272 -1 x291 -1 x310 -1 x329 -1 x348 -1 x367 -1 x386 >= -1
 -1 x140 -1 x159 -1 x178 -1 x197 -1 x216 -1 x235 -1 x254 -1 x273 -1 x292 -1 x311 -1 x330 -1 x349 -1 x368 -1 x387 >= -1
 -1 x160 -1 x179 -1 x198 -1 x217 -1 x236 -1 x255 -1 x274 -1 x293 -1 x312 -1 x331 -1 x350 -1 x369 -1 x388 >= -1
 -1 x180 -1 x199 -1 x218 -1 x237 -1 x256 -1 x275 -1 x294 -1 x313 -1 x332 -1 x351 -1 x370 -1 x389 >= -1
 -1 x200 -1 x219 -1 x238 -1 x257 -1 x276 -1 x295 -1 x314 -1 x333 -1 x352 -1 x371 -1 x390 >= -1
 -1 x220 -1 x239 -1 x258 -1 x277 -1 x296 -1 x315 -1 x334 -1 x353 -1 x372 -1 x391 >= -1
 -1 x240 -1 x259 -1 x278 -1 x297 -1 x316 -1 x335 -1 x354 -1 x373 -1 x392 >= -1
 -1 x260 -1 x279 -1 x298 -1 x317 -1 x336 -1 x355 -1 x374 -1 x393 >= -1
 -1 x280 -1 x299 -1 x318 -1 x337 -1 x356 -1 x375 -1 x394 >= -1
 -1 x300 -1 x319 -1 x338 -1 x357 -1 x376 -1 x395 >= -1
 -1 x320 -1 x339 -1 x358 -1 x377 -1 x396 >= -1
 -1 x340 -1 x359 -1 x378 -1 x397 >= -1
 -1 x360 -1 x379 -1 x398 >= -1
 -1 x380 -1 x399 >= -1
 -1 x19 -1 x40 >= -1
 -1 x18 -1 x39 -1 x60 >= -1
 -1 x17 -1 x38 -1 x59 -1 x80 >= -1
 -1 x16 -1 x37 -1 x58 -1 x79 -1 x100 >= -1
 -1 x15 -1 x36 -1 x57 -1 x78 -1 x99 -1 x120 >= -1
 -1 x14 -1 x35 -1 x56 -1 x77 -1 x98 -1 x119 -1 x140 >= -1
 -1 x13 -1 x34 -1 x55 -1 x76 -1 x97 -1 x118 -1 x139 -1 x160 >= -1
 -1 x12 -1 x33 -1 x54 -1 x75 -1 x96 -1 x117 -1 x138 -1 x159 -1 x180 >= -1
 -1 x11 -1 x32 -1 x53 -1 x74 -1 x95 -1 x116 -1 x137 -1 x158 -1 x179 -1 x200 >= -1
 -1 x10 -1 x31 -1 x52 -1 x73 -1 x94 -1 x115 -1 x136 -1 x157 -1 x178 -1 x199 -1 x220 >= -1
 -1 x9 -1 x30 -1 x51 -1 x72 -1 x93 -1 x114 -1 x135 -1 x156 -1 x177 -1 x198 -1 x219 -1 x240 >= -1
 -1 x8 -1 x29 -1 x50 -1 x71 -1 x92 -1 x113 -1 x134 -1 x155 -1 x176 -1 x197 -1 x218 -1 x239 -1 x260 >= -1
 -1 x7 -1 x28 -1 x49 -1 x70 -1 x91 -1 x112 -1 x133 -1 x154 -1 x175 -1 x196 -1 x217 -1 x238 -1 x259 -1 x280 >= -1
 -1 x6 -1 x27 -1 x48 -1 x69 -1 x90 -1 x111 -1 x132 -1 x153 -1 x174 -1 x195 -1 x216 -1 x237 -1 x258 -1 x279 -1 x300 >= -1
 -1 x5 -1 x26 -1 x47 -1 x68 -1 x89 -1 x110 -1 x131 -1 x152 -1 x173 -1 x194 -1 x215 -1 x236 -1 x257 -1 x278 -1 x299 -1 x320 >= -1
 -1 x4 -1 x25 -1 x46 -1 x67 -1 x88 -1 x109 -1 x130 -1 x151 -1 x172 -1 x193 -1 x214 -1 x235 -1 x256 -1 x277 -1 x298 -1 x319 -1 x340 >= -1
 -1 x3 -1 x24 -1 x45 -1 x66 -1 x87 -1 x108 -1 x129 -1 x150 -1 x171 -1 x192 -1 x213 -1 x234 -1 x255 -1 x276 -1 x297 -1 x318 -1 x339 -1 x360 >= -1
 -1 x2 -1 x23 -1 x44 -1 x65 -1 x86 -1 x107 -1 x128 -1 x149 -1 x170 -1 x191 -1 x212 -1 x233 -1 x254 -1 x275 -1 x296 -1 x317 -1 x338 -1 x359 -1 x380 >= -1
 -1 x1 -1 x22 -1 x43 -1 x64 -1 x85 -1 x106 -1 x127 -1 x148 -1 x169 -1 x190 -1 x211 -1 x232 -1 x253 -1 x274 -1 x295 -1 x316 -1 x337 -1 x358 -1 x379 -1 x400 >= -1
 -1 x21 -1 x42 -1 x63 -1 x84 -1 x105 -1 x126 -1 x147 -1 x168 -1 x189 -1 x210 -1 x231 -1 x252 -1 x273 -1 x294 -1 x315 -1 x336 -1 x357 -1 x378 -1 x399 >= -1
 -1 x41 -1 x62 -1 x83 -1 x104 -1 x125 -1 x146 -1 x167 -1 x188 -1 x209 -1 x230 -1 x251 -1 x272 -1 x293 -1 x314 -1 x335 -1 x356 -1 x377 -1 x398 >= -1
 -1 x61 -1 x82 -1 x103 -1 x124 -1 x145 -1 x166 -1 x187 -1 x208 -1 x229 -1 x250 -1 x271 -1 x292 -1 x313 -1 x334 -1 x355 -1 x376 -1 x397 >= -1
 -1 x81 -1 x102 -1 x123 -1 x144 -1 x165 -1 x186 -1 x207 -1 x228 -1 x249 -1 x270 -1 x291 -1 x312 -1 x333 -1 x354 -1 x375 -1 x396 >= -1
 -1 x101 -1 x122 -1 x143 -1 x164 -1 x185 -1 x206 -1 x227 -1 x248 -1 x269 -1 x290 -1 x311 -1 x332 -1 x353 -1 x374 -1 x395 >= -1
 -1 x121 -1 x142 -1 x163 -1 x184 -1 x205 -1 x226 -1 x247 -1 x268 -1 x289 -1 x310 -1 x331 -1 x352 -1 x373 -1 x394 >= -1
 -1 x141 -1 x162 -1 x183 -1 x204 -1 x225 -1 x246 -1 x267 -1 x288 -1 x309 -1 x330 -1 x351 -1 x372 -1 x393 >= -1
 -1 x161 -1 x182 -1 x203 -1 x224 -1 x245 -1 x266 -1 x287 -1 x308 -1 x329 -1 x350 -1 x371 -1 x392 >= -1
 -1 x181 -1 x202 -1 x223 -1 x244 -1 x265 -1 x286 -1 x307 -1 x328 -1 x349 -1 x370 -1 x391 >= -1
 -1 x201 -1 x222 -1 x243 -1 x264 -1 x285 -1 x306 -1 x327 -1 x348 -1 x369 -1 x390 >= -1
 -1 x221 -1 x242 -1 x263 -1 x284 -1 x305 -1 x326 -1 x347 -1 x368 -1 x389 >= -1
 -1 x241 -1 x262 -1 x283 -1 x304 -1 x325 -1 x346 -1 x367 -1 x388 >= -1
 -1 x261 -1 x282 -1 x303 -1 x324 -1 x345 -1 x366 -1 x387 >= -1
 -1 x281 -1 x302 -1 x323 -1 x344 -1 x365 -1 x386 >= -1
 -1 x301 -1 x322 -1 x343 -1 x364 -1 x385 >= -1
 -1 x321 -1 x342 -1 x363 -1 x384 >= -1
 -1 x341 -1 x362 -1 x383 >= -1
 -1 x361 -1 x382 >= -1
Binary
x226 x136 x316 x225 x135 x315 x224 x134 x314 x223 x133 x313 x222 x132 x312 x221 x131 x311 x130 x310 x220 x344 x201 x102 x322 x3 x83 x263 x164 x230 x245 x146 x366 x47 x388 x69 x289 x155 x111 x331 x212 x173 x353 x94 x274 x375 x256 x397 x58 x199 x120 x300 x244 x121 x301 x2 x82 x262 x103 x323 x389 x165 x345 x46 x147 x367 x68 x288 x374 x110 x330 x231 x172 x352 x213 x154 x95 x275 x396 x257 x198 x59 x200 x364 x1 x81 x261 x122 x302 x203 x144 x351 x45 x166 x346 x247 x188 x210 x171 x157 x232 x113 x333 x254 x395 x96 x276 x377 x78 x298 x100 x320 x365 x101 x321 x202 x123 x303 x44 x145 x112 x246 x167 x347 x189 x170 x350 x211 x277 x332 x233 x394 x255 x156 x376 x97 x79 x299 x80 x260 x106 x241 x142 x362 x43 x124 x304 x205 x151 x326 x7 x87 x267 x29 x90 x270 x177 x371 x252 x393 x234 x115 x335 x216 x357 x18 x160 x340 x305 x161 x341 x42 x143 x363 x204 x125 x370 x6 x86 x266 x107 x327 x28 x150 x176 x91 x271 x392 x253 x114 x334 x235 x356 x217 x19 x240 x85 x41 x162 x342 x243 x104 x324 x5 x272 x265 x126 x306 x207 x250 x391 x92 x337 x153 x373 x214 x175 x355 x236 x117 x38 x140 x360 x264 x141 x361 x242 x163 x343 x4 x84 x152 x105 x325 x206 x127 x307 x390 x251 x336 x372 x93 x273 x174 x354 x215 x116 x237 x39 x40 x400 x50 x61 x281 x182 x25 x128 x308 x209 x339 x191 x72 x292 x14 x36 x238 x119 x380 x51 x381 x183 x24 x208 x129 x309 x190 x60 x73 x293 x15 x37 x118 x338 x239 x280 x89 x382 x63 x283 x27 x108 x328 x9 x218 x269 x70 x290 x52 x193 x34 x16 x179 x359 x180 x268 x181 x62 x282 x383 x26 x8 x88 x17 x109 x329 x71 x291 x192 x53 x35 x178 x358 x219 x249 x21 x384 x65 x285 x186 x168 x348 x278 x10 x32 x54 x195 x76 x296 x98 x159 x379 x11 x64 x284 x385 x187 x248 x169 x349 x99 x33 x194 x55 x77 x297 x158 x378 x279 x20 x49 x23 x184 x386 x67 x287 x148 x368 x399 x30 x12 x74 x294 x56 x197 x258 x369 x22 x185 x66 x286 x387 x48 x149 x259 x31 x13 x75 x295 x196 x57 x398 x229 x139 x319 x228 x138 x318 x227 x137 x317 
